5,1	0,0	12,6	5,5	0,0	0,0	0,0	0,0	0,0	15,9
19,5	8,1	0,0	10,4	11,7	0,0	0,0	16,3	0,0	0,0
0,0	0,0	7,8	0,0	11,9	17,8	0,0	0,0	5,7	0,0
7,4	0,0	13,0	0,0	0,0	0,0	7,0	0,0	0,0	0,0
0,0	8,0	0,0	13,6	16,8	0,0	0,0	13,6	0,0	0,0
0,0	6,9	14,5	0,0	19,7	15,4	0,0	0,0	6,0	0,0
0,0	14,0	0,0	18,5	0,0	0,0	6,4	0,0	0,0	5,8
13,3	0,0	7,4	0,0	0,0	0,0	0,0	0,0	0,0	13,3
0,0	18,7	0,0	7,3	17,3	0,0	0,0	11,0	0,0	0,0
0,0	0,0	6,0	0,0	0,0	17,0	9,3	0,0	0,0	17,5
									
3,6	3,6	4,0	4,4	3,5	3,8	3,4	3,8	4,1	4,0
